(declare-sort Loc 0)
(declare-const f1_0_main_Load Loc)
(declare-const f243_0_main_InvokeMethod Loc)
(declare-const f61_0_createTree_Return Loc)
(declare-const f337_0_createTree_Return Loc)
(declare-const f3774_0_lessleaves_NONNULL Loc)
(declare-const f2736_0_main_InvokeMethod Loc)
(declare-const f674_0_createTree_Return Loc)
(declare-const f2748_0_main_InvokeMethod Loc)
(declare-const f675_0_createTree_Return Loc)
(declare-const f2824_0_main_InvokeMethod Loc)
(declare-const f716_0_random_GT Loc)
(declare-const f835_0_createTree_NE Loc)
(declare-const f1037_0_createNode_Return Loc)
(declare-const f2703_0_createTree_LE Loc)
(declare-const f2820_0_createTree_NONNULL Loc)
(declare-const f2917_0_createTree_FieldAccess Loc)
(declare-const f2969_0_createTree_LE Loc)
(declare-const f3061_0_createTree_FieldAccess Loc)
(declare-const f3815_0_append_Return Loc)
(declare-const f3836_0_append_NONNULL Loc)
(declare-const f4062_0_lessleaves_InvokeMethod Loc)
(declare-const f4063_0_lessleaves_InvokeMethod Loc)
(declare-const f2045_0_random_GT Loc)
(declare-const __init Loc)
(assert (distinct f1_0_main_Load f243_0_main_InvokeMethod f61_0_createTree_Return f337_0_createTree_Return f3774_0_lessleaves_NONNULL f2736_0_main_InvokeMethod f674_0_createTree_Return f2748_0_main_InvokeMethod f675_0_createTree_Return f2824_0_main_InvokeMethod f716_0_random_GT f835_0_createTree_NE f1037_0_createNode_Return f2703_0_createTree_LE f2820_0_createTree_NONNULL f2917_0_createTree_FieldAccess f2969_0_createTree_LE f3061_0_createTree_FieldAccess f3815_0_append_Return f3836_0_append_NONNULL f4062_0_lessleaves_InvokeMethod f4063_0_lessleaves_InvokeMethod f2045_0_random_GT __init ))

(define-fun cfg_init ( (pc Loc) (src Loc) (rel Bool) ) Bool
  (and (= pc src) rel))

(define-fun cfg_trans2 ( (pc Loc) (src Loc)
                         (pc1 Loc) (dst Loc)
                         (rel Bool) ) Bool
  (and (= pc src) (= pc1 dst) rel))

(define-fun cfg_trans3 ( (pc Loc) (exit Loc)
                         (pc1 Loc) (call Loc)
                         (pc2 Loc) (return Loc)
                         (rel Bool) ) Bool
  (and (= pc exit) (= pc1 call) (= pc2 return) rel))

(define-fun init_main ( (pc Loc) (arg1 Int) (arg2 Int) (arg3 Int) (arg4 Int) (arg5 Int) (arg6 Int) (arg7 Int) (arg8 Int) (arg9 Int) (arg10 Int) (arg11 Int) ) Bool
  (cfg_init pc __init true))

(define-fun next_main (
                 (pc Loc) (arg1 Int) (arg2 Int) (arg3 Int) (arg4 Int) (arg5 Int) (arg6 Int) (arg7 Int) (arg8 Int) (arg9 Int) (arg10 Int) (arg11 Int)
                 (pc1 Loc) (arg1P Int) (arg2P Int) (arg3P Int) (arg4P Int) (arg5P Int) (arg6P Int) (arg7P Int) (arg8P Int) (arg9P Int) (arg10P Int) (arg11P Int)
             ) Bool
  (or
    (cfg_trans2 pc f1_0_main_Load pc1 f243_0_main_InvokeMethod (and (and (and (<= arg1P arg1) (> arg1 0)) (> arg1P 0)) (= 0 arg2P)))
    (cfg_trans2 pc f1_0_main_Load pc1 f243_0_main_InvokeMethod (and (and (<= arg1P arg1) (> arg1 0)) (> arg1P 0)))
    (cfg_trans2 pc f61_0_createTree_Return pc1 f243_0_main_InvokeMethod (and (> arg1P 0) (= 0 arg2P)))
    (cfg_trans2 pc f243_0_main_InvokeMethod pc1 f337_0_createTree_Return (and (and (<= arg1P arg1) (> arg1 0)) (> arg1P 0)))
    (cfg_trans2 pc f337_0_createTree_Return pc1 f3774_0_lessleaves_NONNULL (and (and (and (and (and (and (and (and (<= (+ arg1P 1) arg1) (<= (+ arg2P 1) arg1)) (<= (+ arg3P 1) arg1)) (<= (+ arg4P 1) arg1)) (> arg1 0)) (> arg1P (- 1))) (> arg2P (- 1))) (> arg3P (- 1))) (> arg4P (- 1))))
    (cfg_trans2 pc f1_0_main_Load pc1 f2736_0_main_InvokeMethod (and (and (and (<= arg1P arg1) (> arg1 0)) (> arg1P 0)) (> arg2P 0)))
    (cfg_trans2 pc f674_0_createTree_Return pc1 f2736_0_main_InvokeMethod (and (and (and (and (and (and (and (and (and (<= arg1P arg1) (<= (+ arg1P 1) arg2)) (<= arg2P arg2)) (> arg1 0)) (> arg2 1)) (> arg1P 0)) (> arg2P 1)) (<= (+ arg4 2) arg2)) (= arg3 arg3P)) (= arg4 arg4P)))
    (cfg_trans2 pc f243_0_main_InvokeMethod pc1 f2748_0_main_InvokeMethod (and (and (and (<= arg1P arg1) (> arg1 0)) (> arg1P 0)) (> arg2P 0)))
    (cfg_trans2 pc f675_0_createTree_Return pc1 f2748_0_main_InvokeMethod (and (and (and (and (and (and (and (and (<= arg1P arg1) (<= (+ arg1P 1) arg2)) (<= arg2P arg2)) (> arg1 0)) (> arg2 1)) (> arg1P 0)) (> arg2P 1)) (<= (+ arg3 2) arg2)) (= arg3 arg3P)))
    (cfg_trans2 pc f2748_0_main_InvokeMethod pc1 f3774_0_lessleaves_NONNULL (and (and (and (and (and (and (and (and (and (and (and (<= arg1P arg2) (<= (+ arg2P 1) arg1)) (<= (+ arg2P 1) arg2)) (<= arg3P arg2)) (<= arg4P arg2)) (> arg1 0)) (> arg2 0)) (> arg1P 0)) (> arg2P (- 1))) (> arg3P 0)) (> arg4P 0)) (<= (+ arg3 2) arg2)))
    (cfg_trans2 pc f2736_0_main_InvokeMethod pc1 f2824_0_main_InvokeMethod (and (and (and (and (and (and (and (and (and (<= arg1P arg1) (<= arg1P arg2)) (<= arg2P arg2)) (> arg1 0)) (> arg2 0)) (> arg1P 0)) (> arg2P 0)) (<= (+ arg4P 2) arg2)) (<= (+ arg4 2) arg2)) (= arg4 arg3P)))
    (cfg_trans2 pc f2824_0_main_InvokeMethod pc1 f3774_0_lessleaves_NONNULL (and (and (and (and (and (and (and (and (and (and (and (and (and (and (<= (+ arg1P 1) arg1) (<= (+ arg1P 1) arg2)) (<= arg2P arg2)) (<= (+ arg3P 1) arg1)) (<= (+ arg3P 1) arg2)) (<= (+ arg4P 1) arg1)) (<= (+ arg4P 1) arg2)) (> arg1 0)) (> arg2 0)) (> arg1P (- 1))) (> arg2P 0)) (> arg3P (- 1))) (> arg4P (- 1))) (<= (+ arg4 2) arg2)) (<= (+ arg3 2) arg2)))
    (cfg_trans2 pc f2736_0_main_InvokeMethod pc1 f3774_0_lessleaves_NONNULL (and (and (and (and (and (and (and (<= arg2P arg2) (> arg1 0)) (> arg2 0)) (> arg1P 0)) (> arg2P 0)) (> arg3P 0)) (> arg4P 0)) (<= (+ arg4 2) arg2)))
    (cfg_trans2 pc f1_0_main_Load pc1 f716_0_random_GT (and (> arg1 0) (> arg2 (- 1))))
    (cfg_trans2 pc f243_0_main_InvokeMethod pc1 f716_0_random_GT (exists ((x79 Int)) (and (> arg1 0) (> x79 (- 1)))))
    (cfg_trans2 pc f2736_0_main_InvokeMethod pc1 f716_0_random_GT (exists ((x82 Int)) (and (and (and (> arg1 0) (> x82 (- 1))) (> arg2 0)) (<= (+ arg4 2) arg2))))
    (cfg_trans2 pc f716_0_random_GT pc1 f835_0_createTree_NE (exists ((x88 Int)) (and (and (and (> x88 (- 1)) (< x88 arg2P)) (= 0 arg1P)) (= (+ x88 1) arg3P))))
    (cfg_trans2 pc f716_0_random_GT pc1 f835_0_createTree_NE (exists ((x90 Int)) (and (and (and (< x90 arg2P) (> arg1P (- 1))) (> x90 (- 1))) (= (+ x90 1) arg3P))))
    (cfg_trans2 pc f1037_0_createNode_Return pc1 f2703_0_createTree_LE (and (and (and (and (> arg2P 1) (> arg1P 1)) (= arg1 arg3P)) (= arg2 arg4P)) (= arg3 arg5P)))
    (cfg_trans2 pc f835_0_createTree_NE pc1 f2703_0_createTree_LE (and (and (and (and (and (and (> arg1 0) (> arg3 0)) (> arg2P 1)) (> arg1P 1)) (= arg1 arg3P)) (= arg2 arg4P)) (= arg3 arg5P)))
    (cfg_trans2 pc f835_0_createTree_NE pc1 f2703_0_createTree_LE (and (and (and (and (and (> arg1 0) (> arg3 0)) (> arg2P 1)) (> arg1P 1)) (= arg1 arg3P)) (= arg2 arg4P)))
    (cfg_trans2 pc f2703_0_createTree_LE pc1 f2820_0_createTree_NONNULL (and (and (and (and (and (and (and (and (and (and (and (and (and (and (and (and (>= arg5 arg4) (> arg4 (- 1))) (> arg3 0)) (<= arg2P arg1)) (<= arg3P arg2)) (<= (+ arg4P 1) arg2)) (> arg1 0)) (> arg2 0)) (> arg2P 0)) (> arg3P 0)) (> arg4P (- 1))) (<= (+ arg7P 2) arg1)) (<= (+ arg8P 2) arg1)) (<= (+ arg9P 2) arg2)) (= arg3 arg1P)) (= arg4 arg5P)) (= arg5 arg6P)))
    (cfg_trans2 pc f2820_0_createTree_NONNULL pc1 f2703_0_createTree_LE (and (and (and (and (and (and (and (and (and (and (and (and (and (<= arg1P arg2) (<= (+ arg2P 2) arg3)) (<= arg2P arg4)) (> arg2 0)) (> arg3 2)) (> arg4 0)) (> arg1P 0)) (> arg2P 0)) (<= (+ arg7 2) arg2)) (<= (+ arg8 2) arg2)) (<= (+ arg9 2) arg3)) (= (- arg1 1) arg3P)) (= arg5 arg4P)) (= arg6 arg5P)))
    (cfg_trans2 pc f2820_0_createTree_NONNULL pc1 f2917_0_createTree_FieldAccess (and (and (and (and (and (and (and (and (and (and (and (and (and (and (and (and (>= arg6 arg5) (> arg1 0)) (<= arg2P arg2)) (<= arg3P arg3)) (> arg2 0)) (> arg3 1)) (> arg4 (- 1))) (> arg2P 0)) (> arg3P 1)) (<= (+ arg7 2) arg2)) (<= (+ arg8 2) arg2)) (<= (+ arg9 2) arg3)) (= arg1 arg1P)) (= arg5 arg4P)) (= arg6 arg5P)) (= arg8 arg6P)) (= arg9 arg7P)))
    (cfg_trans2 pc f2820_0_createTree_NONNULL pc1 f2917_0_createTree_FieldAccess (and (and (and (and (and (and (and (and (and (and (and (and (and (and (and (>= arg6 arg5) (> arg1 0)) (<= arg2P arg2)) (<= arg3P arg3)) (> arg2 0)) (> arg3 1)) (> arg4 (- 1))) (> arg2P 0)) (> arg3P 1)) (<= (+ arg7 2) arg2)) (<= (+ arg8 2) arg2)) (<= (+ arg9 2) arg3)) (= arg1 arg1P)) (= arg5 arg4P)) (= arg8 arg6P)) (= arg9 arg7P)))
    (cfg_trans2 pc f2703_0_createTree_LE pc1 f2969_0_createTree_LE (and (and (and (and (and (and (and (and (and (and (and (and (and (and (and (> arg3 0) (> arg4 (- 1))) (< arg5 arg4)) (> arg5 (- 1))) (<= arg2P arg1)) (<= arg3P arg2)) (> arg1 0)) (> arg2 0)) (> arg2P 0)) (> arg3P 0)) (<= (+ arg7P 2) arg1)) (<= (+ arg8P 2) arg1)) (= arg3 arg1P)) (= 0 arg4P)) (= arg4 arg5P)) (= (+ arg5 1) arg6P)))
    (cfg_trans2 pc f2703_0_createTree_LE pc1 f2969_0_createTree_LE (and (and (and (and (and (and (and (and (and (and (and (and (and (and (and (> arg3 0) (> arg4 (- 1))) (< arg5 arg4)) (> arg5 (- 1))) (> arg4P (- 1))) (<= arg2P arg1)) (<= arg3P arg2)) (> arg1 0)) (> arg2 0)) (> arg2P 0)) (> arg3P 0)) (<= (+ arg7P 2) arg1)) (<= (+ arg8P 2) arg1)) (= arg3 arg1P)) (= arg4 arg5P)) (= (+ arg5 1) arg6P)))
    (cfg_trans2 pc f2917_0_createTree_FieldAccess pc1 f2703_0_createTree_LE (and (and (and (and (and (and (and (and (> arg2 0) (> arg3 1)) (> arg1P 0)) (> arg2P 0)) (<= (+ arg6 2) arg2)) (<= (+ arg7 2) arg3)) (= (- arg1 1) arg3P)) (= arg4 arg4P)) (= arg5 arg5P)))
    (cfg_trans2 pc f2917_0_createTree_FieldAccess pc1 f2703_0_createTree_LE (and (and (and (and (and (and (and (and (and (and (and (and (and (<= (- arg1P 2) arg2) (<= (- arg1P 2) arg3)) (<= (- arg2P 2) arg2)) (<= (- arg2P 2) arg3)) (> arg2 1)) (> arg3 1)) (> arg1P 3)) (> arg2P 3)) (<= (+ arg6 2) arg2)) (<= (+ arg6 2) arg3)) (= arg6 arg7)) (= (- arg1 1) arg3P)) (= arg4 arg4P)) (= arg5 arg5P)))
    (cfg_trans2 pc f2969_0_createTree_LE pc1 f2820_0_createTree_NONNULL (and (and (and (and (and (and (and (and (and (and (and (and (and (and (and (and (<= arg2P arg2) (<= arg3P arg3)) (<= (+ arg4P 1) arg3)) (> arg2 0)) (> arg3 0)) (> arg2P 0)) (> arg3P 0)) (> arg4P (- 1))) (<= (+ arg7 2) arg2)) (<= (+ arg8 2) arg2)) (<= (+ arg9P 2) arg3)) (= 0 arg4)) (= arg1 arg1P)) (= arg5 arg5P)) (= arg6 arg6P)) (= arg7 arg7P)) (= arg8 arg8P)))
    (cfg_trans2 pc f2969_0_createTree_LE pc1 f2703_0_createTree_LE (and (and (and (and (and (and (and (and (and (and (and (<= arg1P arg2) (> arg4 0)) (<= (+ arg2P 2) arg3)) (> arg2 0)) (> arg3 2)) (> arg1P 0)) (> arg2P 0)) (<= (+ arg7 2) arg2)) (<= (+ arg8 2) arg2)) (= (- arg1 1) arg3P)) (= arg5 arg4P)) (= arg6 arg5P)))
    (cfg_trans2 pc f2969_0_createTree_LE pc1 f3061_0_createTree_FieldAccess (and (and (and (and (and (and (and (and (and (and (and (and (and (and (and (> arg4 0) (> arg6 0)) (> arg1 0)) (<= arg2P arg2)) (<= arg3P arg3)) (> arg2 0)) (> arg3 1)) (> arg2P 0)) (> arg3P 1)) (<= (+ arg7 2) arg2)) (<= (+ arg8 2) arg2)) (<= (+ arg7P 2) arg3)) (= arg1 arg1P)) (= arg5 arg4P)) (= arg6 arg5P)) (= arg7 arg6P)))
    (cfg_trans2 pc f2969_0_createTree_LE pc1 f3061_0_createTree_FieldAccess (and (and (and (and (and (and (and (and (and (and (and (and (and (and (> arg4 0) (> arg6 0)) (> arg1 0)) (<= arg2P arg2)) (<= arg3P arg3)) (> arg2 0)) (> arg3 1)) (> arg2P 0)) (> arg3P 1)) (<= (+ arg7 2) arg2)) (<= (+ arg8 2) arg2)) (<= (+ arg7P 2) arg3)) (= arg1 arg1P)) (= arg5 arg4P)) (= arg7 arg6P)))
    (cfg_trans2 pc f3061_0_createTree_FieldAccess pc1 f2703_0_createTree_LE (and (and (and (and (and (and (and (and (> arg2 0) (> arg3 1)) (> arg1P 0)) (> arg2P 0)) (<= (+ arg6 2) arg2)) (<= (+ arg7 2) arg3)) (= (- arg1 1) arg3P)) (= arg4 arg4P)) (= arg5 arg5P)))
    (cfg_trans2 pc f3061_0_createTree_FieldAccess pc1 f2703_0_createTree_LE (and (and (and (and (and (and (and (and (and (and (and (and (and (<= (- arg1P 2) arg2) (<= (- arg1P 2) arg3)) (<= (- arg2P 2) arg2)) (<= (- arg2P 2) arg3)) (> arg2 1)) (> arg3 1)) (> arg1P 3)) (> arg2P 3)) (<= (+ arg6 2) arg2)) (<= (+ arg6 2) arg3)) (= arg6 arg7)) (= (- arg1 1) arg3P)) (= arg4 arg4P)) (= arg5 arg5P)))
    (cfg_trans2 pc f3774_0_lessleaves_NONNULL pc1 f3815_0_append_Return (and (and (and (and (and (and (and (and (and (and (and (and (and (<= arg1P arg2) (<= arg2P arg1)) (<= arg2P arg3)) (<= arg2P arg4)) (<= arg3P arg2)) (> arg1 0)) (> arg2 3)) (> arg3 0)) (> arg4 0)) (> arg1P 3)) (> arg2P 0)) (> arg3P 0)) (<= (+ arg5P 2) arg2)) (<= (+ arg6P 4) arg2)))
    (cfg_trans2 pc f3774_0_lessleaves_NONNULL pc1 f3815_0_append_Return (and (and (and (and (and (and (and (and (and (and (and (and (<= arg1P arg2) (<= arg2P arg1)) (<= arg2P arg3)) (<= arg2P arg4)) (> arg1 0)) (> arg2 4)) (> arg3 0)) (> arg4 0)) (> arg1P 4)) (> arg2P 0)) (> arg3P 2)) (<= (+ arg5P 2) arg2)) (<= (+ arg6P 4) arg2)))
    (cfg_trans2 pc f3774_0_lessleaves_NONNULL pc1 f3836_0_append_NONNULL (and (and (and (and (and (<= (+ arg1P 1) arg2) (> arg1 0)) (> arg2 0)) (> arg3 0)) (> arg4 0)) (> arg1P (- 1))))
    (cfg_trans2 pc f3815_0_append_Return pc1 f3836_0_append_NONNULL (and (and (and (and (and (and (and (<= (+ arg1P 1) arg2) (> arg1 2)) (> arg2 0)) (> arg3 0)) (> arg1P (- 1))) (<= (+ arg5 2) arg1)) (<= (+ arg6 4) arg1)) (<= (+ arg6 2) arg3)))
    (cfg_trans2 pc f3774_0_lessleaves_NONNULL pc1 f3836_0_append_NONNULL (and (and (and (and (and (and (and (<= (+ arg1P 1) arg1) (<= (+ arg1P 1) arg3)) (<= (+ arg1P 1) arg4)) (> arg1 0)) (> arg2 1)) (> arg3 0)) (> arg4 0)) (> arg1P (- 1))))
    (cfg_trans2 pc f3774_0_lessleaves_NONNULL pc1 f3774_0_lessleaves_NONNULL (and (and (and (and (and (and (and (and (and (and (and (and (and (and (and (and (and (<= (+ arg1P 2) arg1) (<= (+ arg1P 2) arg3)) (<= (+ arg1P 2) arg4)) (<= (+ arg2P 2) arg2)) (<= (+ arg3P 2) arg1)) (<= (+ arg3P 2) arg3)) (<= (+ arg3P 2) arg4)) (<= (+ arg4P 2) arg1)) (<= (+ arg4P 2) arg3)) (<= (+ arg4P 2) arg4)) (> arg1 1)) (> arg2 1)) (> arg3 1)) (> arg4 1)) (> arg1P (- 1))) (> arg2P (- 1))) (> arg3P (- 1))) (> arg4P (- 1))))
    (cfg_trans2 pc f3815_0_append_Return pc1 f3774_0_lessleaves_NONNULL (and (and (and (and (and (and (and (and (and (and (and (and (and (<= (+ arg1P 2) arg2) (<= arg2P arg3)) (<= (+ arg3P 2) arg2)) (<= (+ arg4P 2) arg2)) (> arg1 2)) (> arg2 1)) (> arg3 0)) (> arg1P (- 1))) (> arg2P 0)) (> arg3P (- 1))) (> arg4P (- 1))) (<= (+ arg5 2) arg1)) (<= (+ arg6 4) arg1)) (<= (+ arg6 2) arg3)))
    (cfg_trans2 pc f3774_0_lessleaves_NONNULL pc1 f4062_0_lessleaves_InvokeMethod (and (and (and (and (and (and (and (and (and (and (and (and (and (and (and (and (and (and (and (and (and (and (and (<= arg1P arg2) (<= arg2P arg1)) (<= arg2P arg3)) (<= arg2P arg4)) (<= (+ arg3P 2) arg2)) (<= arg4P arg1)) (<= arg4P arg3)) (<= arg4P arg4)) (<= (+ arg6P 2) arg2)) (> arg1 3)) (> arg2 1)) (> arg3 3)) (> arg4 3)) (> arg1P 1)) (> arg2P 3)) (> arg3P (- 1))) (> arg4P 0)) (> arg6P (- 1))) (<= (+ arg7P 2) arg1)) (<= (+ arg8P 4) arg1)) (<= (+ arg7P 2) arg3)) (<= (+ arg8P 4) arg3)) (<= (+ arg7P 2) arg4)) (<= (+ arg8P 4) arg4)))
    (cfg_trans2 pc f3774_0_lessleaves_NONNULL pc1 f4062_0_lessleaves_InvokeMethod (and (and (and (and (and (and (and (and (and (and (and (and (and (and (and (and (and (and (and (and (<= arg1P arg2) (<= arg2P arg1)) (<= arg2P arg3)) (<= arg2P arg4)) (<= (+ arg3P 2) arg2)) (<= (+ arg6P 2) arg2)) (> arg1 4)) (> arg2 1)) (> arg3 4)) (> arg4 4)) (> arg1P 1)) (> arg2P 4)) (> arg3P (- 1))) (> arg4P 2)) (> arg6P (- 1))) (<= (+ arg7P 2) arg1)) (<= (+ arg8P 4) arg1)) (<= (+ arg7P 2) arg3)) (<= (+ arg8P 4) arg3)) (<= (+ arg7P 2) arg4)) (<= (+ arg8P 4) arg4)))
    (cfg_trans2 pc f3815_0_append_Return pc1 f4063_0_lessleaves_InvokeMethod (and (and (and (and (and (and (and (and (and (and (and (and (and (and (and (and (and (and (and (and (<= arg1P arg1) (<= arg2P arg2)) (<= arg3P arg3)) (<= arg4P arg2)) (> arg1 2)) (> arg2 3)) (> arg3 0)) (> arg1P 2)) (> arg2P 3)) (> arg3P 0)) (> arg4P 0)) (<= (+ arg5 2) arg1)) (<= (+ arg7P 4) arg1)) (<= (+ arg6 4) arg1)) (<= (+ arg8P 2) arg2)) (<= (+ arg11P 4) arg2)) (<= (+ arg6 2) arg3)) (<= (+ arg9P 2) arg3)) (= arg4 arg5P)) (= arg5 arg6P)) (= arg6 arg10P)))
    (cfg_trans2 pc f3815_0_append_Return pc1 f4063_0_lessleaves_InvokeMethod (and (and (and (and (and (and (and (and (and (and (and (and (and (and (and (and (and (and (and (<= arg1P arg1) (<= arg2P arg2)) (<= arg3P arg3)) (> arg1 2)) (> arg2 4)) (> arg3 0)) (> arg1P 2)) (> arg2P 4)) (> arg3P 0)) (> arg4P 2)) (<= (+ arg5 2) arg1)) (<= (+ arg7P 4) arg1)) (<= (+ arg6 4) arg1)) (<= (+ arg8P 2) arg2)) (<= (+ arg11P 4) arg2)) (<= (+ arg6 2) arg3)) (<= (+ arg9P 2) arg3)) (= arg4 arg5P)) (= arg5 arg6P)) (= arg6 arg10P)))
    (cfg_trans2 pc f4062_0_lessleaves_InvokeMethod pc1 f3774_0_lessleaves_NONNULL (and (and (and (and (and (and (and (and (and (and (and (and (and (and (and (and (and (<= arg1P arg4) (<= (+ arg2P 2) arg1)) (<= arg2P arg3)) (<= arg2P arg6)) (<= arg3P arg4)) (<= arg4P arg4)) (> arg1 1)) (> arg2 2)) (> arg3 (- 1))) (> arg4 0)) (> arg6 (- 1))) (> arg1P 0)) (> arg2P (- 1))) (> arg3P 0)) (> arg4P 0)) (<= (+ arg7 2) arg2)) (<= (+ arg8 4) arg2)) (<= (+ arg8 2) arg4)))
    (cfg_trans2 pc f4063_0_lessleaves_InvokeMethod pc1 f3774_0_lessleaves_NONNULL (and (and (and (and (and (and (and (and (and (and (and (and (and (and (and (and (and (and (and (<= arg1P arg4) (<= arg2P arg3)) (<= arg3P arg4)) (<= arg4P arg4)) (> arg1 2)) (> arg2 2)) (> arg3 0)) (> arg4 0)) (> arg1P 0)) (> arg2P 0)) (> arg3P 0)) (> arg4P 0)) (<= (+ arg6 2) arg1)) (<= (+ arg7 4) arg1)) (<= (+ arg10 4) arg1)) (<= (+ arg8 2) arg2)) (<= (+ arg11 4) arg2)) (<= (+ arg9 2) arg3)) (<= (+ arg10 2) arg3)) (<= (+ arg11 2) arg4)))
    (cfg_trans2 pc f835_0_createTree_NE pc1 f2045_0_random_GT (and (and (and (and (> arg1 0) (> arg2 (- 1))) (> arg3 0)) (= arg2 arg2P)) (= arg3 arg3P)))
    (cfg_trans2 pc f2820_0_createTree_NONNULL pc1 f2045_0_random_GT (and (and (and (and (and (and (and (and (and (and (> arg5 (- 1)) (>= arg6 arg5)) (> arg1 0)) (> arg2 0)) (> arg3 1)) (> arg4 (- 1))) (<= (+ arg7 2) arg2)) (<= (+ arg8 2) arg2)) (<= (+ arg9 2) arg3)) (= arg5 arg2P)) (= arg6 arg3P)))
    (cfg_trans2 pc f2969_0_createTree_LE pc1 f2045_0_random_GT (and (and (and (and (and (and (and (and (and (> arg1 0) (> arg6 0)) (> arg5 (- 1))) (> arg4 0)) (> arg2 0)) (> arg3 1)) (<= (+ arg7 2) arg2)) (<= (+ arg8 2) arg2)) (= arg5 arg2P)) (= arg6 arg3P)))
    (cfg_trans2 pc f3836_0_append_NONNULL pc1 f3836_0_append_NONNULL (and (and (<= (+ arg1P 1) arg1) (> arg1 0)) (> arg1P (- 1))))
    (cfg_trans2 pc __init pc1 f1_0_main_Load true)
  )
)
